NAME : gr137.151355.tour
COMMENT : Cost = 31334_151355
COMMENT : Found by LKH [Keld Helsgaun] Thu Nov 16 17:27:03 2017
TYPE : TOUR
DIMENSION : 141
TOUR_SECTION
1
10
30
38
44
49
50
73
75
89
90
137
102
117
118
111
110
109
112
113
114
116
103
101
100
99
96
94
93
91
71
72
40
39
32
31
8
9
141
2
3
4
5
18
19
24
20
21
22
23
25
27
28
52
53
54
56
57
61
58
59
60
63
66
67
70
88
87
77
47
46
45
12
13
14
15
16
17
140
6
33
34
35
65
68
69
95
97
98
104
115
105
106
107
92
62
55
26
7
138
64
108
139
11
41
42
48
78
79
80
81
85
84
83
135
134
133
132
131
130
129
128
127
124
123
122
121
119
120
125
126
136
86
82
76
74
51
43
37
36
29
-1
EOF
